274	52	4	176	
18	24	21	22

0	0	0	0	0	0	4	1	2	3	4
1	10	1	6	10	3	2	5	23
2	0	4	0	6	1	1	9
3	0	0	3	7	2	1	31
4	2	0	0	10	3	1	6
5	8	5	8	10	4	1	7
6	0	10	10	1	6	1	8
7	7	8	4	4	4	1	21
8	10	7	5	5	9	1	10
9	4	10	0	0	7	1	14
10	10	8	5	6	10	1	11
11	6	9	5	9	9	1	12
12	2	0	6	9	9	1	13
13	2	1	2	8	8	1	15
14	2	0	8	8	2	1	19
15	3	7	8	3	4	1	16
16	8	3	4	9	5	1	17
17	3	9	0	0	6	1	18
18	7	1	1	4	7	1	20
19	2	2	1	0	7	1	49
20	3	0	0	0	8	1	23
21	0	4	3	0	8	1	22
22	0	2	0	0	8	1	26
23	0	9	0	5	8	1	24
24	8	10	9	3	5	1	25
25	7	2	7	4	1	1	27
26	8	6	9	3	6	1	30
27	1	4	0	5	3	1	28
28	0	0	0	2	1	1	29
29	9	7	4	9	3	1	32
30	0	4	0	0	2	2	33	37
31	6	10	10	1	9	1	33
32	8	9	3	7	9	1	34
33	7	9	0	6	10	1	35
34	3	7	0	4	2	1	36
35	3	8	0	2	1	1	43
36	9	1	2	1	9	1	37
37	10	0	0	2	4	1	38
38	0	0	10	0	7	1	39
39	0	3	3	0	6	1	40
40	8	7	2	4	9	1	41
41	1	0	0	5	7	1	42
42	8	0	0	10	1	1	45
43	1	1	1	6	7	1	44
44	6	3	2	4	4	1	50
45	0	5	7	0	2	1	46
46	4	7	10	9	6	1	47
47	5	2	10	0	2	1	48
48	8	2	2	0	7	1	51
49	0	6	9	5	5	1	51
50	2	9	1	7	8	1	51
51	0	0	0	0	0	0
